benchmarks_CP/INST_36x36/55/inst36x36_55_21.dzn
S=6;
start=[|
33,	14,	1,	28,	-1,	8,	-1,	17,	29,	-1,	10,	-1,	35,	3,	2,	-1,	23,	-1,	7,	4,	-1,	-1,	21,	-1,	34,	31,	32,	36,	11,	-1,	30,	-1,	24,	16,	-1,	-1|
-1,	12,	-1,	-1,	6,	-1,	-1,	2,	9,	5,	-1,	-1,	8,	21,	19,	32,	-1,	4,	-1,	-1,	29,	10,	-1,	-1,	-1,	-1,	22,	-1,	-1,	-1,	34,	-1,	-1,	-1,	18,	-1|
9,	32,	3,	29,	2,	11,	34,	4,	-1,	18,	13,	-1,	-1,	36,	-1,	-1,	27,	28,	-1,	17,	-1,	-1,	15,	31,	-1,	-1,	21,	-1,	-1,	19,	-1,	10,	6,	-1,	8,	-1|
35,	19,	-1,	21,	10,	-1,	26,	15,	30,	3,	14,	22,	-1,	31,	-1,	7,	20,	34,	25,	18,	36,	-1,	2,	5,	6,	8,	4,	29,	13,	24,	28,	-1,	-1,	1,	12,	32|
16,	7,	-1,	25,	34,	-1,	32,	35,	-1,	11,	-1,	20,	10,	-1,	-1,	-1,	-1,	-1,	-1,	28,	24,	-1,	-1,	8,	-1,	1,	27,	-1,	9,	26,	17,	4,	2,	-1,	21,	15|
4,	-1,	-1,	18,	20,	26,	31,	-1,	-1,	-1,	-1,	8,	16,	-1,	-1,	-1,	14,	-1,	34,	-1,	35,	30,	-1,	-1,	28,	-1,	-1,	-1,	2,	15,	22,	-1,	29,	27,	-1,	23|
1,	27,	35,	-1,	-1,	-1,	7,	-1,	25,	-1,	20,	30,	6,	17,	8,	-1,	-1,	-1,	31,	14,	-1,	33,	-1,	18,	-1,	36,	-1,	-1,	26,	-1,	10,	28,	-1,	2,	24,	-1|
30,	9,	6,	34,	-1,	31,	35,	28,	1,	-1,	36,	-1,	33,	27,	24,	-1,	-1,	20,	32,	-1,	-1,	23,	-1,	-1,	17,	-1,	5,	-1,	3,	12,	19,	-1,	4,	-1,	11,	25|
29,	4,	24,	-1,	8,	-1,	-1,	-1,	-1,	15,	-1,	5,	13,	30,	1,	21,	-1,	25,	10,	-1,	22,	11,	-1,	20,	-1,	35,	-1,	19,	28,	33,	23,	-1,	-1,	-1,	7,	27|
22,	-1,	-1,	-1,	3,	7,	9,	26,	27,	4,	23,	13,	-1,	-1,	-1,	34,	29,	-1,	-1,	25,	8,	-1,	-1,	12,	-1,	30,	11,	15,	1,	21,	31,	14,	-1,	-1,	-1,	-1|
25,	11,	-1,	-1,	-1,	15,	18,	-1,	22,	6,	-1,	21,	-1,	-1,	7,	-1,	-1,	32,	30,	27,	-1,	17,	-1,	-1,	-1,	-1,	2,	-1,	-1,	-1,	35,	1,	12,	29,	16,	-1|
-1,	-1,	-1,	-1,	5,	28,	16,	-1,	-1,	24,	31,	32,	12,	23,	-1,	4,	-1,	18,	29,	-1,	-1,	19,	-1,	-1,	-1,	34,	14,	9,	-1,	-1,	-1,	-1,	-1,	26,	-1,	-1|
3,	10,	4,	-1,	18,	32,	1,	-1,	26,	8,	30,	27,	36,	34,	-1,	-1,	-1,	-1,	-1,	5,	19,	20,	17,	15,	29,	21,	9,	-1,	-1,	-1,	-1,	-1,	16,	-1,	-1,	-1|
19,	-1,	7,	-1,	-1,	13,	33,	9,	-1,	35,	5,	34,	24,	28,	-1,	29,	10,	-1,	-1,	-1,	23,	18,	8,	-1,	-1,	32,	-1,	-1,	17,	16,	3,	36,	20,	11,	-1,	-1|
5,	26,	9,	-1,	24,	14,	-1,	-1,	18,	20,	22,	7,	-1,	-1,	-1,	-1,	6,	-1,	36,	21,	-1,	-1,	11,	-1,	19,	-1,	23,	-1,	34,	-1,	13,	-1,	25,	-1,	35,	29|
-1,	30,	-1,	-1,	31,	33,	-1,	12,	-1,	16,	25,	-1,	4,	20,	14,	35,	-1,	3,	22,	-1,	-1,	6,	-1,	-1,	-1,	15,	18,	-1,	-1,	-1,	5,	-1,	-1,	19,	-1,	-1|
-1,	-1,	-1,	16,	-1,	21,	19,	-1,	17,	2,	29,	-1,	11,	-1,	26,	-1,	-1,	-1,	35,	13,	31,	32,	-1,	14,	33,	3,	25,	22,	4,	27,	-1,	34,	30,	-1,	6,	-1|
27,	-1,	17,	2,	25,	22,	14,	-1,	28,	23,	3,	6,	-1,	7,	-1,	-1,	21,	33,	16,	30,	12,	4,	-1,	29,	-1,	5,	24,	20,	36,	10,	18,	32,	-1,	15,	26,	8|
-1,	17,	-1,	-1,	9,	-1,	-1,	7,	33,	-1,	27,	-1,	-1,	35,	6,	-1,	36,	-1,	-1,	-1,	-1,	13,	31,	3,	-1,	10,	1,	34,	-1,	-1,	2,	-1,	-1,	5,	15,	16|
-1,	-1,	-1,	-1,	27,	-1,	25,	29,	-1,	-1,	-1,	17,	5,	11,	20,	31,	-1,	-1,	21,	22,	-1,	36,	-1,	-1,	-1,	9,	-1,	23,	16,	-1,	14,	19,	18,	30,	-1,	-1|
-1,	-1,	28,	6,	-1,	-1,	5,	21,	19,	36,	11,	-1,	27,	-1,	-1,	33,	-1,	7,	4,	15,	32,	-1,	-1,	30,	18,	-1,	-1,	25,	31,	-1,	-1,	-1,	35,	-1,	-1,	-1|
11,	1,	-1,	20,	-1,	35,	3,	30,	2,	-1,	-1,	26,	-1,	32,	22,	28,	17,	-1,	-1,	-1,	-1,	34,	-1,	16,	-1,	19,	-1,	27,	5,	4,	8,	13,	-1,	21,	-1,	-1|
13,	-1,	-1,	-1,	-1,	-1,	-1,	-1,	-1,	-1,	-1,	4,	-1,	14,	21,	-1,	-1,	9,	26,	6,	11,	-1,	5,	-1,	-1,	17,	20,	-1,	15,	22,	-1,	29,	-1,	33,	-1,	-1|
32,	-1,	36,	22,	-1,	-1,	8,	-1,	-1,	-1,	24,	-1,	15,	16,	4,	-1,	3,	-1,	19,	1,	-1,	-1,	-1,	17,	35,	26,	28,	-1,	-1,	29,	27,	-1,	-1,	-1,	-1,	31|
6,	16,	21,	31,	-1,	20,	24,	-1,	10,	-1,	26,	-1,	7,	-1,	-1,	27,	11,	17,	8,	29,	-1,	-1,	-1,	36,	-1,	-1,	34,	-1,	18,	9,	4,	-1,	23,	-1,	30,	13|
-1,	28,	-1,	30,	4,	-1,	20,	18,	12,	33,	17,	23,	-1,	9,	-1,	-1,	-1,	-1,	-1,	-1,	-1,	-1,	26,	-1,	-1,	22,	-1,	24,	-1,	13,	16,	-1,	-1,	34,	5,	-1|
10,	18,	-1,	3,	29,	1,	-1,	-1,	-1,	-1,	34,	9,	-1,	-1,	-1,	6,	-1,	-1,	17,	-1,	-1,	-1,	-1,	22,	-1,	-1,	-1,	32,	-1,	-1,	33,	-1,	-1,	-1,	2,	26|
24,	15,	11,	-1,	33,	34,	-1,	25,	3,	-1,	-1,	36,	-1,	5,	-1,	22,	-1,	21,	-1,	9,	-1,	28,	4,	-1,	-1,	-1,	-1,	-1,	27,	17,	7,	31,	-1,	-1,	-1,	-1|
2,	23,	-1,	-1,	-1,	-1,	22,	-1,	13,	14,	-1,	16,	20,	33,	-1,	25,	-1,	31,	-1,	-1,	18,	12,	32,	-1,	1,	-1,	-1,	28,	-1,	36,	-1,	3,	-1,	-1,	-1,	24|
-1,	36,	-1,	5,	-1,	25,	2,	-1,	-1,	-1,	-1,	-1,	-1,	8,	18,	16,	4,	-1,	13,	34,	14,	15,	-1,	-1,	20,	29,	-1,	6,	30,	31,	-1,	27,	9,	28,	-1,	-1|
8,	13,	5,	-1,	-1,	10,	4,	-1,	-1,	27,	21,	-1,	-1,	24,	-1,	36,	-1,	11,	6,	33,	25,	-1,	18,	9,	15,	16,	-1,	-1,	29,	-1,	20,	-1,	22,	31,	-1,	28|
12,	29,	-1,	26,	28,	-1,	10,	-1,	-1,	-1,	-1,	25,	-1,	-1,	27,	-1,	16,	19,	3,	35,	-1,	-1,	36,	13,	-1,	18,	33,	-1,	-1,	34,	15,	21,	32,	24,	14,	11|
-1,	-1,	-1,	-1,	32,	-1,	-1,	-1,	15,	19,	9,	18,	29,	4,	-1,	-1,	-1,	-1,	-1,	8,	-1,	24,	-1,	-1,	-1,	2,	-1,	17,	20,	28,	-1,	16,	7,	-1,	3,	34|
-1,	-1,	14,	9,	15,	16,	30,	-1,	-1,	26,	-1,	-1,	2,	-1,	-1,	-1,	-1,	10,	-1,	-1,	28,	21,	20,	34,	25,	27,	-1,	1,	-1,	5,	-1,	18,	-1,	8,	-1,	4|
-1,	3,	2,	-1,	11,	-1,	29,	-1,	-1,	-1,	-1,	31,	21,	-1,	-1,	-1,	28,	35,	-1,	-1,	17,	14,	-1,	7,	4,	-1,	36,	13,	-1,	23,	26,	33,	-1,	-1,	-1,	-1|
-1,	34,	-1,	27,	23,	6,	28,	33,	20,	-1,	-1,	-1,	-1,	22,	17,	-1,	-1,	26,	15,	-1,	4,	29,	1,	19,	21,	24,	-1,	11,	-1,	-1,	-1,	30,	5,	10,	-1,	-1|];
